1657607
59, 36, 8, 35, 39, 37, 53, 40, 22, 19, 45, 29, 57, 51, 15, 7, 26, 68, 55, 65, 63, 11, 43, 31, 10, 18, 33, 52, 14, 44, 50, 28, 16, 62, 58, 9, 17, 27, 2, 48, 4, 20, 47, 13, 54, 1, 24, 61, 21, 3, 42, 12, 32, 56, 5, 49, 23, 60, 25, 30, 41, 6, 64, 67, 38, 66, 46, 34
